50
    1   228   218
    2   105    95
    3   429   419
    4   677   667
    5    15     5
    6   187   177
    7   436   426
    8   331   321
    9    25    15
   10   732   722
   11   474   464
   12   984   974
   13   538   528
   14   532   522
   15   828   818
   16   802   792
   17   770   760
   18   817   807
   19   731   721
   20   673   663
   21   920   910
   22   874   864
   23   468   458
   24   674   664
   25   713   703
   26   230   220
   27   581   571
   28   321   311
   29   777   767
   30   514   504
   31   101    91
   32   707   697
   33   282   272
   34   537   527
   35   817   807
   36   121   111
   37   734   724
   38    69    59
   39   559   549
   40   264   254
   41   674   664
   42   956   946
   43    88    78
   44   782   772
   45   457   447
   46   247   237
   47   767   757
   48   991   981
   49   329   319
   50   956   946
13162
